************************************************************************
file with basedata            : md330_.bas
initial value random generator: 1215048615
************************************************************************
projects                      :  1
jobs (incl. supersource/sink ):  22
horizon                       :  162
RESOURCES
  - renewable                 :  2   R
  - nonrenewable              :  2   N
  - doubly constrained        :  0   D
************************************************************************
PROJECT INFORMATION:
pronr.  #jobs rel.date duedate tardcost  MPM-Time
    1     20      0       22        4       22
************************************************************************
PRECEDENCE RELATIONS:
jobnr.    #modes  #successors   successors
   1        1          3           2   3   4
   2        3          3           7  10  16
   3        3          3           5  10  13
   4        3          3           6  10  13
   5        3          3           6   8  19
   6        3          3          15  16  21
   7        3          2          13  17
   8        3          2           9  11
   9        3          2          12  16
  10        3          2          15  18
  11        3          2          12  21
  12        3          1          15
  13        3          2          14  20
  14        3          2          18  21
  15        3          1          17
  16        3          1          17
  17        3          1          20
  18        3          1          19
  19        3          1          22
  20        3          1          22
  21        3          1          22
  22        1          0        
************************************************************************
REQUESTS/DURATIONS:
jobnr. mode duration  R 1  R 2  N 1  N 2
------------------------------------------------------------------------
  1      1     0       0    0    0    0
  2      1     1       0    3    2    0
         2     1       7    0    0    7
         3     7       6    0    0    7
  3      1     1      10    0    0    4
         2     5       0    9    0    3
         3    10       0    9    7    0
  4      1     3       7    0    0    6
         2     5       0    6    4    0
         3     6       5    0    0    5
  5      1     1       0    8    0    8
         2     2       4    0    0    4
         3    10       0    5    5    0
  6      1     3       2    0    9    0
         2     4       0    7    6    0
         3     5       2    0    3    0
  7      1     4      10    0    0    7
         2     5       7    0    4    0
         3     7       3    0    0    7
  8      1     5       1    0    6    0
         2     5       0    8    0    7
         3     7       0    4    0    4
  9      1     4       5    0    9    0
         2     8       0    8    0    4
         3     9       0    8    8    0
 10      1     5       0    6    0    9
         2     8       3    0    0    9
         3     9       0    4    0    9
 11      1     5      10    0    0    3
         2     9      10    0    8    0
         3    10       0    3    8    0
 12      1     1       0    9    0    8
         2     3       0    9    0    1
         3     5       0    9    5    0
 13      1     4      10    0    6    0
         2     5       0   10    5    0
         3     6       0    8    0    1
 14      1     3       9    0    0    9
         2     5       8    0    0    9
         3     8       0   10    7    0
 15      1     4       0    7    0    8
         2     5       0    6    0    7
         3     9       0    4    0    7
 16      1     3       0    9    0    2
         2     8       0    8    8    0
         3    10       3    0    5    0
 17      1     3       2    0    0   10
         2     3       1    0    2    0
         3     7       0    5    0   10
 18      1     3       0    4    8    0
         2     7       7    0    6    0
         3    10       0    1    0    1
 19      1     1       0    3    0    6
         2     4       4    0    0    6
         3     7       4    0    7    0
 20      1     2       1    0    4    0
         2     9       0    4    2    0
         3    10       0    3    0    7
 21      1     3       0    8    7    0
         2    10       0    8    6    0
         3    10       4    0    0    7
 22      1     0       0    0    0    0
************************************************************************
RESOURCEAVAILABILITIES:
  R 1  R 2  N 1  N 2
   16   20   56   65
************************************************************************
MAXIMAL LAGS:
from  to  type  delay
    1   22   ES      0
    1    2   ES      0
    2   22   ES      0
    1    3   ES      0
    3   22   ES      0
    1    4   ES      0
    4   22   ES      0
    1    5   ES      0
    5   22   ES      0
    1    6   ES      0
    6   22   ES      0
    1    7   ES      0
    7   22   ES      0
    1    8   ES      0
    8   22   ES      0
    1    9   ES      0
    9   22   ES      0
    1   10   ES      0
   10   22   ES      0
    1   11   ES      0
   11   22   ES      0
    1   12   ES      0
   12   22   ES      0
    1   13   ES      0
   13   22   ES      0
    1   14   ES      0
   14   22   ES      0
    1   15   ES      0
   15   22   ES      0
    1   16   ES      0
   16   22   ES      0
    1   17   ES      0
   17   22   ES      0
    1   18   ES      0
   18   22   ES      0
    1   19   ES      0
   19   22   ES      0
    1   20   ES      0
   20   22   ES      0
    1   21   ES      0
   21   22   ES      0
    1   22   ES      0
    2    7   SS     -9
    2    7   SE      2
    2    7   ES     -8
    2    7   EE      2
    2   10   SS      9
    2   10   SE      4
    2   10   ES      5
    2   10   EE      7
    2   16   SS     -2
    2   16   SE     12
    2   16   ES      2
    2   16   EE      7
    3    5   SS     11
    3    5   SE      4
    3    5   ES      1
    3    5   EE      5
    3   10   SS      2
    3   10   SE     -7
    3   10   ES     11
    3   10   EE      3
    3   13   SS      2
    3   13   SE     -4
    3   13   ES     12
    3   13   EE     -5
    4    6   SS      8
    4    6   SE     -4
    4    6   ES     12
    4    6   EE     12
    4   10   SS      4
    4   10   SE      3
    4   10   ES      8
    4   10   EE     -5
    4   13   SS     -4
    4   13   SE      2
    4   13   ES    -10
    4   13   EE     10
    5    6   SS     -3
    5    6   SE     -5
    5    6   ES     -4
    5    6   EE     -2
    5    8   SS     -2
    5    8   SE      5
    5    8   ES    -10
    5    8   EE     -8
    5   19   SS     -8
    5   19   SE     -5
   19    5   SE      0
    5   19   ES      0
    5   19   EE     10
    6   15   SS     -8
    6   15   SE     10
    6   15   ES     -6
    6   15   EE    -10
    6   16   SS      1
    6   16   SE      1
    6   16   ES     -2
    6   16   EE      5
    6   21   SS      2
    6   21   SE      1
    6   21   ES    -11
    6   21   EE     -6
    7   13   SS      1
    7   13   SE      0
    7   13   ES     12
    7   13   EE      6
    7   17   SS     10
    7   17   SE    -12
    7   17   ES     12
    7   17   EE      6
    8    9   SS      0
    8    9   SE      3
    8    9   ES    -12
    8    9   EE     -1
    8   11   SS     -3
    8   11   SE     12
    8   11   ES      0
    8   11   EE      1
    9   12   SS      5
    9   12   SE     11
    9   12   ES     11
    9   12   EE      5
    9   16   SS      7
    9   16   SE     -5
    9   16   ES      3
    9   16   EE     -5
   10   15   SS     -4
   10   15   SE      1
   10   15   ES      3
   10   15   EE    -12
   10   18   SS      0
   10   18   SE     -2
   10   18   ES      9
   10   18   EE      9
   11   12   SS      0
   11   12   SE     11
   11   12   ES     -7
   11   12   EE      2
   11   21   SS     -8
   11   21   SE      7
   11   21   ES      5
   11   21   EE    -12
   12   15   SS      0
   12   15   SE      6
   12   15   ES      6
   12   15   EE      9
   13   14   SS    -12
   13   14   SE    -10
   13   14   ES      8
   13   14   EE      1
   13   20   SS     -8
   13   20   SE      2
   13   20   ES     -7
   13   20   EE    -11
   14   18   SS     -4
   14   18   SE      0
   14   18   ES     -2
   14   18   EE     -6
   14   21   SS      2
   14   21   SE     -2
   14   21   ES     -2
   14   21   EE     12
   15   17   SS      0
   15   17   SE     -4
   15   17   ES     12
   15   17   EE      1
   16   17   SS     -4
   16   17   SE    -10
   16   17   ES      3
   16   17   EE    -12
   17   20   SS     11
   17   20   SE      5
   17   20   ES    -11
   17   20   EE     -1
   18   19   SS     -5
   18   19   SE      8
   18   19   ES    -10
   18   19   EE     12
************************************************************************
